
Gurobi 10.0.0 (win64) logging started Thu Jun 13 08:44:35 2024

Set parameter LogFile to value "C:\Users\ealvarezq\Documents\GitHub\Comillas\Models\JointResearch\05. Models\06.Benchmarking\D.Representative_days_based_on_RES_and_Demand\RTS24_mod2_ByStages_nc150/openStarNet_RTS24_mod2_ByStages_nc150.log"
Set parameter Method to value 2
Set parameter MIPFocus to value 1
Set parameter Presolve to value 2
Set parameter RINS to value 100
Set parameter MIPGap to value 0.01
Set parameter Threads to value 9
Set parameter TimeLimit to value 259200
Set parameter IterationLimit to value 760000000
Gurobi Optimizer version 10.0.0 build v10.0.0rc2 (win64)

CPU model: Intel(R) Core(TM) i7-8700 CPU @ 3.20GHz, instruction set [SSE2|AVX|AVX2]
Thread count: 6 physical cores, 12 logical processors, using up to 9 threads

Optimize a model with 53253 rows, 35953 columns and 145159 nonzeros
Model fingerprint: 0x459fb203
Variable types: 35932 continuous, 21 integer (21 binary)
Coefficient statistics:
  Matrix range     [3e-03, 3e+02]
  Objective range  [1e+00, 1e+00]
  Bounds range     [4e-05, 3e+00]
  RHS range        [4e-05, 3e+00]
Presolve removed 31723 rows and 18234 columns
Presolve time: 0.20s
Presolved: 21530 rows, 17719 columns, 77773 nonzeros
Variable types: 17698 continuous, 21 integer (21 binary)
Root relaxation presolved: 21530 rows, 17719 columns, 77773 nonzeros

Root barrier log...

Ordering time: 0.01s

Barrier statistics:
 Dense cols : 21
 AA' NZ     : 1.445e+05
 Factor NZ  : 4.134e+05 (roughly 20 MB of memory)
 Factor Ops : 8.473e+06 (less than 1 second per iteration)
 Threads    : 8

                  Objective                Residual
Iter       Primal          Dual         Primal    Dual     Compl     Time
   0   6.73587730e+05 -5.83546634e+07  5.37e+00 8.77e+01  3.30e+03     0s
   1   1.06897861e+05 -1.51999270e+07  7.14e-01 2.30e-10  4.62e+02     0s
   2   4.16574110e+04 -3.27689540e+06  1.80e-01 7.13e-09  8.33e+01     0s
   3   1.92339970e+04 -7.31105733e+05  4.39e-03 8.50e-10  1.51e+01     0s
   4   8.42985419e+03 -5.29769277e+04  8.79e-05 6.78e-11  1.22e+00     0s
   5   7.92897584e+02 -2.90557346e+03  2.77e-07 1.04e-12  7.37e-02     0s
   6   3.83763560e+02 -9.66230647e+02  6.22e-08 5.12e-13  2.69e-02     0s
   7   2.39997145e+02 -4.25714401e+02  3.01e-08 2.54e-13  1.33e-02     0s
   8   1.61944491e+02 -1.49908218e+02  1.48e-08 3.48e-13  6.21e-03     0s
   9   1.18308643e+02 -3.81244914e+01  7.94e-09 4.37e-13  3.12e-03     0s
  10   8.93581378e+01  6.07050827e+00  4.08e-09 3.46e-13  1.66e-03     0s
  11   7.57300327e+01  2.70459503e+01  2.33e-09 4.25e-13  9.70e-04     0s
  12   7.10263845e+01  3.80049249e+01  1.73e-09 3.07e-13  6.58e-04     0s
  13   6.74439243e+01  4.41979076e+01  1.27e-09 4.24e-13  4.63e-04     0s
  14   6.37230148e+01  4.78757184e+01  8.08e-10 4.14e-13  3.16e-04     0s
  15   6.17605622e+01  5.12552844e+01  5.55e-10 4.45e-13  2.09e-04     0s
  16   6.03003446e+01  5.27781244e+01  3.62e-10 3.79e-13  1.50e-04     0s
  17   5.97631028e+01  5.36514645e+01  2.90e-10 2.55e-13  1.22e-04     1s
  18   5.90992494e+01  5.53182209e+01  2.08e-10 4.74e-13  7.53e-05     1s
  19   5.86872992e+01  5.64705383e+01  1.55e-10 3.65e-13  4.42e-05     1s
  20   5.81489198e+01  5.65856980e+01  8.42e-11 4.48e-13  3.11e-05     1s
  21   5.78766756e+01  5.71421145e+01  4.62e-11 5.65e-13  1.46e-05     1s
  22   5.76931550e+01  5.73575210e+01  2.11e-11 6.68e-13  6.69e-06     1s
  23   5.76352616e+01  5.74626888e+01  1.34e-11 5.36e-13  3.44e-06     1s
  24   5.75656910e+01  5.75104749e+01  1.69e-11 5.11e-13  1.10e-06     1s
  25   5.75452035e+01  5.75255604e+01  2.54e-11 4.61e-13  3.91e-07     1s
  26   5.75345958e+01  5.75302460e+01  2.13e-10 8.20e-13  8.67e-08     1s
  27   5.75333944e+01  5.75317858e+01  1.21e-10 3.46e-13  3.20e-08     1s
  28   5.75324908e+01  5.75323852e+01  6.50e-10 3.87e-13  2.10e-09     1s
  29   5.75324727e+01  5.75324726e+01  7.50e-10 1.06e-12  2.34e-12     1s

Barrier solved model in 29 iterations and 0.62 seconds (0.57 work units)
Optimal objective 5.75324727e+01


Root relaxation: objective 5.753247e+01, 3472 iterations, 0.50 seconds (0.43 work units)

    Nodes    |    Current Node    |     Objective Bounds      |     Work
 Expl Unexpl |  Obj  Depth IntInf | Incumbent    BestBd   Gap | It/Node Time

     0     0   57.53247    0   19          -   57.53247      -     -    1s
H    0     0                     114.3488400   57.53247  49.7%     -    1s
     0     0   59.06288    0   16  114.34884   59.06288  48.3%     -    2s
H    0     0                     109.2909479   59.06288  46.0%     -    2s
H    0     0                      98.4979088   59.09316  40.0%     -    2s
     0     0   59.09316    0   15   98.49791   59.09316  40.0%     -    2s
     0     0   59.09511    0   15   98.49791   59.09511  40.0%     -    2s
     0     0   59.30753    0   15   98.49791   59.30753  39.8%     -    3s
     0     0   59.32819    0   12   98.49791   59.32819  39.8%     -    3s
     0     0   59.33263    0   12   98.49791   59.33263  39.8%     -    3s
     0     0   59.42384    0   10   98.49791   59.42384  39.7%     -    3s
H    0     0                      95.1965642   59.43048  37.6%     -    4s
     0     0   59.43048    0   10   95.19656   59.43048  37.6%     -    4s
     0     0   59.43192    0   10   95.19656   59.43192  37.6%     -    4s
     0     0   59.43296    0   10   95.19656   59.43296  37.6%     -    4s
     0     0   59.43626    0   10   95.19656   59.43626  37.6%     -    4s
     0     0   59.43652    0   10   95.19656   59.43652  37.6%     -    4s
     0     0   59.43684    0   10   95.19656   59.43684  37.6%     -    4s
     0     0   59.45571    0   10   95.19656   59.45571  37.5%     -    4s
     0     0   60.24206    0   10   95.19656   60.24206  36.7%     -    5s
H    0     0                      78.1276708   60.24206  22.9%     -   11s
     0     2   60.24206    0   10   78.12767   60.24206  22.9%     -   11s
    24    34   62.62940    5   15   78.12767   61.16312  21.7%  1037   15s
    92    79   72.81485   10   10   78.12767   62.03162  20.6%   870   24s
   104    88   77.06623   10   10   78.12767   62.03162  20.6%   864   25s
   202   122   65.45348    8   12   78.12767   62.43838  20.1%   791   31s
   301   128     cutoff   18        78.12767   62.94108  19.4%   711   35s
   402   155   77.98547   11    9   78.12767   63.64315  18.5%   674   40s
   560   166   77.68915   14    6   78.12767   66.81000  14.5%   642   46s
   693   199     cutoff   18        78.12767   67.07437  14.1%   625   60s
   883   255   76.90700   10   10   78.12767   69.29015  11.3%   586   65s
   999   265     cutoff    7        78.12767   69.49671  11.0%   574  103s
  1035   278   76.17478   12    8   78.12767   70.11655  10.3%   576  105s
  1228   275     cutoff    9        78.12767   70.85481  9.31%   556  110s
* 1475   310              21      77.9892596   71.48043  8.35%   527  114s
  1580   342     cutoff   13        77.98926   71.70422  8.06%   519  117s
  1841   375   74.64450   14    6   77.98926   72.09804  7.55%   497  121s
H 1932   375                      77.9039415   72.19110  7.33%   489  121s
  1982   374   76.96924   14    6   77.90394   72.34528  7.14%   484  133s
H 2059   374                      77.8582307   72.52556  6.85%   478  133s
  2112   399   76.24454   11    9   77.85823   72.68310  6.65%   479  136s
  2434   405     cutoff   14        77.85823   73.21777  5.96%   460  142s
  2611   402     cutoff   14        77.85823   73.58129  5.49%   451  145s
  2800   391   76.01395   11    9   77.85823   73.84445  5.16%   442  154s
  2887   370   77.46688   12    8   77.85823   74.03633  4.91%   439  193s
  3034   348     cutoff   16        77.85823   74.38128  4.47%   433  197s
  3167   348     cutoff   16        77.85823   74.58819  4.20%   424  204s
  3218   291     cutoff   16        77.85823   74.78381  3.95%   422  208s
  3532   174     cutoff   15        77.85823   75.29529  3.29%   408  213s
  3960     6   77.48071   13    7   77.85823   75.94665  2.46%   386  216s

Cutting planes:
  Implied bound: 131
  MIR: 559
  Relax-and-lift: 92

Explored 4234 nodes (1580649 simplex iterations) in 216.26 seconds (329.95 work units)
Thread count was 9 (of 12 available processors)

Solution count 8: 77.8582 77.9039 77.9893 ... 114.349

Optimal solution found (tolerance 1.00e-02)
Best objective 7.785823066082e+01, best bound 7.738142770297e+01, gap 0.6124%

Gurobi 10.0.0 (win64) logging started Thu Jun 13 08:48:29 2024

Set parameter LogFile to value "C:\Users\ealvarezq\Documents\GitHub\Comillas\Models\JointResearch\05. Models\06.Benchmarking\D.Representative_days_based_on_RES_and_Demand\RTS24_mod2_ByStages_nc150/openStarNet_RTS24_mod2_ByStages_nc150.log"
Set parameter Method to value 2
Set parameter MIPFocus to value 1
Set parameter Presolve to value 2
Set parameter RINS to value 100
Set parameter MIPGap to value 0.01
Set parameter Threads to value 9
Set parameter TimeLimit to value 259200
Set parameter IterationLimit to value 760000000
Gurobi Optimizer version 10.0.0 build v10.0.0rc2 (win64)

CPU model: Intel(R) Core(TM) i7-8700 CPU @ 3.20GHz, instruction set [SSE2|AVX|AVX2]
Thread count: 6 physical cores, 12 logical processors, using up to 9 threads

Optimize a model with 53253 rows, 35932 columns and 132538 nonzeros
Model fingerprint: 0x5fe58df4
Coefficient statistics:
  Matrix range     [3e-03, 3e+02]
  Objective range  [1e+00, 1e+00]
  Bounds range     [4e-05, 3e+00]
  RHS range        [4e-05, 2e+01]
Presolve removed 44853 rows and 20807 columns
Presolve time: 0.06s
Presolved: 8400 rows, 15401 columns, 37906 nonzeros

Ordering time: 0.00s

Barrier statistics:
 AA' NZ     : 2.183e+04
 Factor NZ  : 8.254e+04 (roughly 8 MB of memory)
 Factor Ops : 1.204e+06 (less than 1 second per iteration)
 Threads    : 9

                  Objective                Residual
Iter       Primal          Dual         Primal    Dual     Compl     Time
   0   3.97988931e+06 -3.52017256e+07  3.21e+01 1.22e+02  1.48e+04     0s
   1   2.44373240e+05 -2.30933154e+07  1.74e+00 2.73e-12  1.48e+03     0s
   2   5.13692641e+04 -5.27622700e+06  2.67e-01 2.27e-12  2.50e+02     0s
   3   2.61172438e+04 -7.05438139e+05  3.18e-02 2.50e-12  2.97e+01     0s
   4   1.38811905e+04 -2.06516546e+05  2.57e-03 1.65e-12  8.24e+00     0s
   5   5.29570614e+03 -4.00271134e+04  1.29e-05 1.36e-12  1.68e+00     0s
   6   1.51512949e+03 -4.69329358e+03  2.45e-06 6.96e-13  2.30e-01     0s
   7   3.75313495e+02 -1.39385666e+03  8.89e-08 9.95e-13  6.55e-02     0s
   8   2.85148079e+02 -5.54165865e+02  4.39e-08 9.27e-13  3.11e-02     0s
   9   1.64025428e+02 -8.39789635e+01  1.33e-08 6.76e-13  9.18e-03     0s
  10   1.00007947e+02  4.52706046e+01  2.67e-09 6.37e-13  2.03e-03     0s
  11   8.55120124e+01  6.91220458e+01  8.54e-10 5.77e-13  6.07e-04     0s
  12   8.03461571e+01  7.44048556e+01  2.67e-10 6.48e-13  2.20e-04     0s
  13   7.89241367e+01  7.67756805e+01  1.11e-10 8.70e-13  7.96e-05     0s
  14   7.81681200e+01  7.75123038e+01  1.50e-10 5.49e-13  2.43e-05     0s
  15   7.79219395e+01  7.77849269e+01  1.50e-10 8.49e-13  5.07e-06     0s
  16   7.78623335e+01  7.78470475e+01  2.22e-10 5.07e-13  5.66e-07     0s
  17   7.78587707e+01  7.78539469e+01  2.90e-10 5.08e-13  1.79e-07     0s
  18   7.78582375e+01  7.78581351e+01  2.17e-10 8.61e-13  3.79e-09     0s
  19   7.78582307e+01  7.78582306e+01  1.24e-10 5.95e-13  3.79e-12     0s
  20   7.78582307e+01  7.78582307e+01  9.23e-12 7.58e-13  3.79e-15     0s

Barrier solved model in 20 iterations and 0.19 seconds (0.16 work units)
Optimal objective 7.78582307e+01

Crossover log...

    1967 DPushes remaining with DInf 0.0000000e+00                 0s
       0 DPushes remaining with DInf 0.0000000e+00                 0s

     483 PPushes remaining with PInf 0.0000000e+00                 0s
       0 PPushes remaining with PInf 0.0000000e+00                 0s

  Push phase complete: Pinf 0.0000000e+00, Dinf 2.0527845e-13      0s

Iteration    Objective       Primal Inf.    Dual Inf.      Time
     538    7.7858231e+01   0.000000e+00   0.000000e+00      0s

Use crossover to convert LP symmetric solution to basic solution...
Crossover log...

       0 DPushes remaining with DInf 0.0000000e+00                 0s

     376 PPushes remaining with PInf 0.0000000e+00                 0s
       0 PPushes remaining with PInf 0.0000000e+00                 0s

  Push phase complete: Pinf 0.0000000e+00, Dinf 3.0979325e-13      0s

Iteration    Objective       Primal Inf.    Dual Inf.      Time
     973    7.7858231e+01   0.000000e+00   0.000000e+00      0s

Solved in 973 iterations and 0.30 seconds (0.21 work units)
Optimal objective  7.785823066e+01
